(set-logic QF_LIA)
(declare-fun x0 () Int)
(declare-fun x1 () Int)
(declare-fun x2 () Int)
(declare-fun x3 () Int)
(declare-fun x4 () Int)
(declare-fun x5 () Int)
(declare-fun x6 () Int)
(declare-fun x7 () Int)
(declare-fun x8 () Int)
(declare-fun x9 () Int)
(declare-fun A0 () Bool)
(declare-fun A1 () Bool)
(declare-fun A2 () Bool)
(declare-fun A3 () Bool)
(declare-fun A4 () Bool)
(declare-fun A5 () Bool)
(declare-fun A6 () Bool)
(declare-fun A8 () Bool)
(declare-fun A9 () Bool)
(assert (let ((.def_0 (* 1 x1))) (let ((.def_1 (* (- 1) x0))) (let ((.def_2 (+ .def_1 .def_0))) (let ((.def_3 (< .def_2 (- 1)))) (let ((.def_4 (and A0 .def_3))) (let ((.def_5 (not .def_4))) (let ((.def_6 (* (- 1) x2))) (let ((.def_7 (< .def_6 (- 1)))) (let ((.def_8 (not .def_7))) (let ((.def_9 (= A9 .def_8))) (let ((.def_10 (not .def_9))) (let ((.def_11 (or .def_10 .def_5))) (let ((.def_12 (* (- 1) x8))) (let ((.def_13 (* (- 1) x1))) (let ((.def_14 (+ .def_13 .def_12))) (let ((.def_15 (< .def_14 (- 1)))) (let ((.def_16 (= .def_15 A2))) (let ((.def_17 (not .def_16))) (let ((.def_18 (* 1 x5))) (let ((.def_19 (+ .def_1 .def_18))) (let ((.def_20 (< .def_19 1))) (let ((.def_21 (not .def_20))) (let ((.def_22 (and .def_21 A6))) (let ((.def_23 (and .def_22 .def_17))) (let ((.def_24 (and .def_23 .def_11))) (let ((.def_25 (not .def_24))) (let ((.def_26 (not A4))) (let ((.def_27 (not A5))) (let ((.def_28 (and .def_27 .def_26))) (let ((.def_29 (< .def_0 (- 1)))) (let ((.def_30 (not .def_29))) (let ((.def_31 (or A0 .def_30))) (let ((.def_32 (and .def_31 .def_28))) (let ((.def_33 (not .def_32))) (let ((.def_34 (= A3 A6))) (let ((.def_35 (* 1 x2))) (let ((.def_36 (< .def_35 (- 1)))) (let ((.def_37 (not .def_36))) (let ((.def_38 (or A3 .def_37))) (let ((.def_39 (not .def_38))) (let ((.def_40 (and .def_39 .def_34))) (let ((.def_41 (not .def_40))) (let ((.def_42 (or .def_41 .def_33))) (let ((.def_43 (not .def_42))) (let ((.def_44 (and .def_43 .def_25))) (let ((.def_45 (not .def_44))) (let ((.def_46 (not A1))) (let ((.def_47 (or .def_46 A8))) (let ((.def_48 (and A4 .def_26))) (let ((.def_49 (and .def_48 .def_47))) (let ((.def_50 (< .def_1 1))) (let ((.def_51 (not .def_50))) (let ((.def_52 (+ .def_6 .def_0))) (let ((.def_53 (< .def_52 (- 1)))) (let ((.def_54 (not .def_53))) (let ((.def_55 (and .def_54 .def_51))) (let ((.def_56 (not .def_55))) (let ((.def_57 (and .def_27 A3))) (let ((.def_58 (= .def_57 .def_56))) (let ((.def_59 (not .def_58))) (let ((.def_60 (and .def_59 .def_49))) (let ((.def_61 (not .def_60))) (let ((.def_62 (= A4 A2))) (let ((.def_63 (* 1 x0))) (let ((.def_64 (+ .def_12 .def_63))) (let ((.def_65 (< .def_64 (- 1)))) (let ((.def_66 (not .def_65))) (let ((.def_67 (or .def_66 A1))) (let ((.def_68 (or .def_67 .def_62))) (let ((.def_69 (* 1 x7))) (let ((.def_70 (< .def_69 1))) (let ((.def_71 (* 1 x4))) (let ((.def_72 (< .def_71 1))) (let ((.def_73 (not .def_72))) (let ((.def_74 (or .def_73 .def_70))) (let ((.def_75 (not .def_74))) (let ((.def_76 (+ .def_6 .def_63))) (let ((.def_77 (< .def_76 1))) (let ((.def_78 (* 1 x6))) (let ((.def_79 (+ .def_78 .def_6))) (let ((.def_80 (< .def_79 1))) (let ((.def_81 (and .def_80 .def_77))) (let ((.def_82 (= .def_81 .def_75))) (let ((.def_83 (not .def_82))) (let ((.def_84 (or .def_83 .def_68))) (let ((.def_85 (not .def_84))) (let ((.def_86 (and .def_85 .def_61))) (let ((.def_87 (and .def_86 .def_45))) (let ((.def_88 (not .def_87))) (let ((.def_89 (<= x9 1))) (let ((.def_90 (<= 0 x9))) (let ((.def_91 (<= x8 1))) (let ((.def_92 (<= 0 x8))) (let ((.def_93 (<= x7 1))) (let ((.def_94 (<= 0 x7))) (let ((.def_95 (<= x6 1))) (let ((.def_96 (<= 0 x6))) (let ((.def_97 (<= x5 1))) (let ((.def_98 (<= 0 x5))) (let ((.def_99 (<= x4 1))) (let ((.def_100 (<= 0 x4))) (let ((.def_101 (<= x3 1))) (let ((.def_102 (<= 0 x3))) (let ((.def_103 (<= x2 1))) (let ((.def_104 (<= 0 x2))) (let ((.def_105 (<= x1 1))) (let ((.def_106 (<= 0 x1))) (let ((.def_107 (<= x0 1))) (let ((.def_108 (<= 0 x0))) (let ((.def_109 (and .def_108 .def_107 .def_106 .def_105 .def_104 .def_103 .def_102 .def_101 .def_100 .def_99 .def_98 .def_97 .def_96 .def_95 .def_94 .def_93 .def_92 .def_91 .def_90 .def_89 .def_88))) .def_109)))))))))))))))))))))))))))))))))))))))))))))))))))))))))))))))))))))))))))))))))))))))))))))))))))))))))))))))
(check-sat)
